Translating instance to solver...

Set parameter TimeLimit to value 28800
Gurobi Optimizer version 11.0.2 build v11.0.2rc0 (linux64 - "Ubuntu 22.04.4 LTS")

CPU model: Intel(R) Xeon(R) Gold 5120 CPU @ 2.20GHz, instruction set [SSE2|AVX|AVX2|AVX512]
Thread count: 28 physical cores, 56 logical processors, using up to 28 threads

Academic license 2463511 - for non-commercial use only - registered to lu___@cefet-rj.br
Optimize a model with 12725 rows, 7643 columns and 31653 nonzeros
Model fingerprint: 0xba900590
Variable types: 1 continuous, 7642 integer (7620 binary)
Coefficient statistics:
  Matrix range     [1e+00, 1e+05]
  Objective range  [3e-01, 8e-01]
  Bounds range     [1e+00, 2e+01]
  RHS range        [1e+00, 4e+01]
Presolve removed 10507 rows and 6685 columns
Presolve time: 0.17s
Presolved: 2218 rows, 958 columns, 7429 nonzeros
Variable types: 0 continuous, 958 integer (937 binary)

Root relaxation: objective 8.656282e-01, 502 iterations, 0.01 seconds (0.01 work units)

    Nodes    |    Current Node    |     Objective Bounds      |     Work
 Expl Unexpl |  Obj  Depth IntInf | Incumbent    BestBd   Gap | It/Node Time

     0     0    0.86563    0   87          -    0.86563      -     -    0s
H    0     0                       1.0617820    0.86563  18.5%     -    0s
     0     0    0.91178    0   76    1.06178    0.91178  14.1%     -    0s
     0     0    0.91178    0   79    1.06178    0.91178  14.1%     -    0s
     0     0    0.91178    0   89    1.06178    0.91178  14.1%     -    0s
     0     0    0.91178    0   63    1.06178    0.91178  14.1%     -    0s
     0     0    0.91178    0  128    1.06178    0.91178  14.1%     -    0s
     0     0    0.91178    0   79    1.06178    0.91178  14.1%     -    0s
     0     0    0.91178    0   64    1.06178    0.91178  14.1%     -    0s
     0     0    0.91178    0   85    1.06178    0.91178  14.1%     -    0s
     0     0     cutoff    0         1.06178    1.06178  0.00%     -    0s

Explored 1 nodes (2159 simplex iterations) in 0.65 seconds (0.38 work units)
Thread count was 28 (of 56 available processors)

Solution count 1: 1.06178 

Optimal solution found (tolerance 1.00e-04)
Best objective 1.061782000000e+00, best bound 1.061782000000e+00, gap 0.0000%

Solver Wallclock Time (for this epsilon): 0.648137092590332 s
Python wallclock Time (for this epsilon): 1.6706690788269043 s


Total Elapsed Time (since program call): 17.063305854797363 s

Results:

I = 1.061782 mA
C = 49.0 points
C ~= 19.6 km^2

Minimum Epsilon for this instance = 10
Maximum Epsilon for this instance = 100

Current Epsilon = 40


Preprocessing Time (for this epsilon): 0.003402233123779297 s


Updated solution vectors:
sol_I = [-0.611782,-1.061782,-1.061782,-1.061782]
sol_C = [14.0,48.0,48.0,49.0]
sol_eps = [10,20,30,40]
sol_gap = [0.0,0.0,0.0,0.0]
